fuel_planner/utils/lkh_tsp_solver/resource/single.tsp
NAME : single
TYPE : ATSP
DIMENSION : 6
EDGE_WEIGHT_TYPE : EXPLICIT
EDGE_WEIGHT_FORMAT : FULL_MATRIX
EDGE_WEIGHT_SECTION
0 1000 1000 1000 1000 1000 
0 0 2 3 3 2 
4 2 0 2 3 3 
1 3 2 0 4 3 
-5 3 3 4 0 3 
4 2 3 3 3 0 
EOF
