fuel_planner/utils/lkh_tsp_solver/resource/single.txt
NAME : single.1004.tour
COMMENT : Length = 1004
COMMENT : Found by LKH [Keld Helsgaun] Thu May 22 21:52:45 2025
TYPE : TOUR
DIMENSION : 6
TOUR_SECTION
1
4
3
2
6
5
-1
EOF
